(declare-fun x1 () Real)
(declare-fun y1 () Real)
(assert (<= (+ (* (- x1 350) (- x1 350)) (* (- y1 750) (- y1 750))) (* 100.0 100.0)))
(assert (= x1 350))
(assert (= y1 750))
(declare-fun s1 () Real)
(declare-fun t1 () Real)
(assert (and (<= 0 s1) (<= s1 1)))
(assert (and (<= 0 t1) (<= t1 1)))
(assert (<= (+ s1 t1) 1))
(assert (or (or (or (or (or (or (or (or (or (or (or (or (or (or (or (or (or (or (or (or (or (or (or (or (or (or (or (or (or (or (or (or (or (or (or (or (or (or (or (or (or (or (or (or (or (or (or (or (or (or (or (or (or (or (or (or (or (or (or (or (or (or (or (or (or (or (or (or (or (or (or (or (or (or (or (or (or (or (or (or (or (or (or (or (or (or (or (or (or (or (or (or (or (or (or (or (or (or (or (or (or (or (or (or (or (or (or (or (or (or (or (or (or (or (or (or (or (or (or (or (or (and (= x1 (+ 455.5339752944799 (+ (* (- 445.8256760006355 455.5339752944799) s1) (* (- 447.3392776500541 455.5339752944799) t1)))) (= y1 (+ 786.7788744841788 (+ (* (- 775.2261976312033 786.7788744841788) s1) (* (- 773.8706621529499 786.7788744841788) t1))))) (and (= x1 (+ 455.5339752944799 (+ (* (- 447.3392776500541 455.5339752944799) s1) (* (- 450.33014584110737 455.5339752944799) t1)))) (= y1 (+ 786.7788744841788 (+ (* (- 773.8706621529499 786.7788744841788) s1) (* (- 771.2495307113903 786.7788744841788) t1)))))) (and (= x1 (+ 469.54252434128756 (+ (* (- 468.6631591773144 469.54252434128756) s1) (* (- 408.8044984627617 469.54252434128756) t1)))) (= y1 (+ 813.7007230386008 (+ (* (- 814.0777366924657 813.7007230386008) s1) (* (- 839.7411735180444 813.7007230386008) t1)))))) (and (= x1 (+ 405.77245613405273 (+ (* (- 405.03516099976997 405.77245613405273) s1) (* (- 404.72844015599327 405.77245613405273) t1)))) (= y1 (+ 841.2853063327982 (+ (* (- 841.921952960527 841.2853063327982) s1) (* (- 842.1837434583797 841.2853063327982) t1)))))) (and (= x1 (+ 404.72844015599327 (+ (* (- 402.9393688001297 404.72844015599327) s1) (* (- 401.72914961039936 404.72844015599327) t1)))) (= y1 (+ 842.1837434583797 (+ (* (- 838.153148146217 842.1837434583797) s1) (* (- 835.4266477239224 842.1837434583797) t1)))))) (and (= x1 (+ 401.72914961039936 (+ (* (- 399.9331317822268 401.72914961039936) s1) (* (- 399.9895861870567 401.72914961039936) t1)))) (= y1 (+ 835.4266477239224 (+ (* (- 831.3804027129215 835.4266477239224) s1) (* (- 831.3672317470579 835.4266477239224) t1)))))) (and (= x1 (+ 404.0277054927088 (+ (* (- 405.37064674565585 404.0277054927088) s1) (* (- 458.838786500994 404.0277054927088) t1)))) (= y1 (+ 830.00351701719 (+ (* (- 829.3872526838292 830.00351701719) s1) (* (- 806.4207684627189 830.00351701719) t1)))))) (and (= x1 (+ 465.86236216436515 (+ (* (- 469.54252434128756 465.86236216436515) s1) (* (- 408.8044984627617 465.86236216436515) t1)))) (= y1 (+ 807.9470189234665 (+ (* (- 813.7007230386008 807.9470189234665) s1) (* (- 839.7411735180444 807.9470189234665) t1)))))) (and (= x1 (+ 405.77245613405273 (+ (* (- 404.72844015599327 405.77245613405273) s1) (* (- 401.72914961039936 405.77245613405273) t1)))) (= y1 (+ 841.2853063327982 (+ (* (- 842.1837434583797 841.2853063327982) s1) (* (- 835.4266477239224 841.2853063327982) t1)))))) (and (= x1 (+ 401.72914961039936 (+ (* (- 399.9895861870567 401.72914961039936) s1) (* (- 400.502232723675 401.72914961039936) t1)))) (= y1 (+ 835.4266477239224 (+ (* (- 831.3672317470579 835.4266477239224) s1) (* (- 831.247629911442 835.4266477239224) t1)))))) (and (= x1 (+ 402.8871049433096 (+ (* (- 404.0277054927088 402.8871049433096) s1) (* (- 458.838786500994 402.8871049433096) t1)))) (= y1 (+ 830.521897350876 (+ (* (- 830.00351701719 830.521897350876) s1) (* (- 806.4207684627189 830.521897350876) t1)))))) (and (= x1 (+ 465.86236216436515 (+ (* (- 408.8044984627617 465.86236216436515) s1) (* (- 407.68268953535465 465.86236216436515) t1)))) (= y1 (+ 807.9470189234665 (+ (* (- 839.7411735180444 807.9470189234665) s1) (* (- 840.1795517572044 807.9470189234665) t1)))))) (and (= x1 (+ 406.5767670751081 (+ (* (- 405.77245613405273 406.5767670751081) s1) (* (- 401.72914961039936 406.5767670751081) t1)))) (= y1 (+ 840.7826906007544 (+ (* (- 841.2853063327982 840.7826906007544) s1) (* (- 835.4266477239224 840.7826906007544) t1)))))) (and (= x1 (+ 401.72914961039936 (+ (* (- 400.502232723675 401.72914961039936) s1) (* (- 401.7853939619931 401.72914961039936) t1)))) (= y1 (+ 835.4266477239224 (+ (* (- 831.247629911442 835.4266477239224) s1) (* (- 830.9236421469517 835.4266477239224) t1)))))) (and (= x1 (+ 465.86236216436515 (+ (* (- 407.68268953535465 465.86236216436515) s1) (* (- 406.5767670751081 465.86236216436515) t1)))) (= y1 (+ 807.9470189234665 (+ (* (- 840.1795517572044 807.9470189234665) s1) (* (- 840.7826906007544 807.9470189234665) t1)))))) (and (= x1 (+ 406.5767670751081 (+ (* (- 401.72914961039936 406.5767670751081) s1) (* (- 401.7853939619931 406.5767670751081) t1)))) (= y1 (+ 840.7826906007544 (+ (* (- 835.4266477239224 840.7826906007544) s1) (* (- 830.9236421469517 840.7826906007544) t1)))))) (and (= x1 (+ 465.86236216436515 (+ (* (- 406.5767670751081 465.86236216436515) s1) (* (- 401.7853939619931 465.86236216436515) t1)))) (= y1 (+ 807.9470189234665 (+ (* (- 840.7826906007544 807.9470189234665) s1) (* (- 830.9236421469517 807.9470189234665) t1)))))) (and (= x1 (+ 465.86236216436515 (+ (* (- 401.7853939619931 465.86236216436515) s1) (* (- 402.8871049433096 465.86236216436515) t1)))) (= y1 (+ 807.9470189234665 (+ (* (- 830.9236421469517 807.9470189234665) s1) (* (- 830.521897350876 807.9470189234665) t1)))))) (and (= x1 (+ 465.86236216436515 (+ (* (- 402.8871049433096 465.86236216436515) s1) (* (- 458.838786500994 465.86236216436515) t1)))) (= y1 (+ 807.9470189234665 (+ (* (- 830.521897350876 807.9470189234665) s1) (* (- 806.4207684627189 807.9470189234665) t1)))))) (and (= x1 (+ 399.0228153852287 (+ (* (- 393.14557662050686 399.0228153852287) s1) (* (- 375.1607344296193 399.0228153852287) t1)))) (= y1 (+ 644.0839618324454 (+ (* (- 646.1193628573568 644.0839618324454) s1) (* (- 651.9130644412442 644.0839618324454) t1)))))) (and (= x1 (+ 375.1607344296193 (+ (* (- 372.2942386436006 375.1607344296193) s1) (* (- 368.80894356009946 375.1607344296193) t1)))) (= y1 (+ 651.9130644412442 (+ (* (- 652.8433661067492 651.9130644412442) s1) (* (- 643.0534647247401 651.9130644412442) t1)))))) (and (= x1 (+ 399.0228153852287 (+ (* (- 375.1607344296193 399.0228153852287) s1) (* (- 368.80894356009946 399.0228153852287) t1)))) (= y1 (+ 644.0839618324454 (+ (* (- 651.9130644412442 644.0839618324454) s1) (* (- 643.0534647247401 644.0839618324454) t1)))))) (and (= x1 (+ 337.5658299321293 (+ (* (- 337.36534061651355 337.5658299321293) s1) (* (- 339.0234536277104 337.5658299321293) t1)))) (= y1 (+ 743.38640253505 (+ (* (- 742.9303100760404 743.38640253505) s1) (* (- 742.2674994828745 743.38640253505) t1)))))) (and (= x1 (+ 342.53180002646576 (+ (* (- 346.1566916537202 342.53180002646576) s1) (* (- 349.28338554917536 342.53180002646576) t1)))) (= y1 (+ 740.9437956859744 (+ (* (- 739.5500173121635 740.9437956859744) s1) (* (- 738.3477970043986 740.9437956859744) t1)))))) (and (= x1 (+ 384.30435218254564 (+ (* (- 384.7403809304929 384.30435218254564) s1) (* (- 385.09028329380493 384.30435218254564) t1)))) (= y1 (+ 822.6942805233338 (+ (* (- 823.7019872402493 822.6942805233338) s1) (* (- 824.5184357645813 822.6942805233338) t1)))))) (and (= x1 (+ 386.16595675020466 (+ (* (- 386.80100569659595 386.16595675020466) s1) (* (- 387.3971723542899 386.16595675020466) t1)))) (= y1 (+ 826.1772522456478 (+ (* (- 826.9289036535203 826.1772522456478) s1) (* (- 827.6675956715895 826.1772522456478) t1)))))) (and (= x1 (+ 390.324524948041 (+ (* (- 390.9721838636915 390.324524948041) s1) (* (- 386.00994921866857 390.324524948041) t1)))) (= y1 (+ 829.8892389341181 (+ (* (- 830.2168487815864 829.8892389341181) s1) (* (- 832.4257118574083 829.8892389341181) t1)))))) (and (= x1 (+ 386.00994921866857 (+ (* (- 382.55648777693233 386.00994921866857) s1) (* (- 379.1387384240222 386.00994921866857) t1)))) (= y1 (+ 832.4257118574083 (+ (* (- 833.9629675518729 832.4257118574083) s1) (* (- 835.4843265518465 832.4257118574083) t1)))))) (and (= x1 (+ 379.1387384240222 (+ (* (- 377.43852763798594 379.1387384240222) s1) (* (- 377.2750034636958 379.1387384240222) t1)))) (= y1 (+ 835.4843265518465 (+ (* (- 836.2411494553621 835.4843265518465) s1) (* (- 835.7914451493349 835.4843265518465) t1)))))) (and (= x1 (+ 376.99824108587575 (+ (* (- 353.369719686579 376.99824108587575) s1) (* (- 346.4436481011729 376.99824108587575) t1)))) (= y1 (+ 834.9296142478717 (+ (* (- 780.3885410278832 834.9296142478717) s1) (* (- 764.278737167548 834.9296142478717) t1)))))) (and (= x1 (+ 342.24751408830053 (+ (* (- 337.5658299321293 342.24751408830053) s1) (* (- 339.0234536277104 342.24751408830053) t1)))) (= y1 (+ 754.35275804908 (+ (* (- 743.38640253505 754.35275804908) s1) (* (- 742.2674994828745 754.35275804908) t1)))))) (and (= x1 (+ 342.53180002646576 (+ (* (- 349.28338554917536 342.53180002646576) s1) (* (- 349.2754824160767 342.53180002646576) t1)))) (= y1 (+ 740.9437956859744 (+ (* (- 738.3477970043986 740.9437956859744) s1) (* (- 738.7890951981894 740.9437956859744) t1)))))) (and (= x1 (+ 389.26347848361524 (+ (* (- 390.324524948041 389.26347848361524) s1) (* (- 386.00994921866857 389.26347848361524) t1)))) (= y1 (+ 829.1708990798604 (+ (* (- 829.8892389341181 829.1708990798604) s1) (* (- 832.4257118574083 829.1708990798604) t1)))))) (and (= x1 (+ 386.00994921866857 (+ (* (- 379.1387384240222 386.00994921866857) s1) (* (- 377.2750034636958 386.00994921866857) t1)))) (= y1 (+ 832.4257118574083 (+ (* (- 835.4843265518465 832.4257118574083) s1) (* (- 835.7914451493349 832.4257118574083) t1)))))) (and (= x1 (+ 376.99824108587575 (+ (* (- 346.4436481011729 376.99824108587575) s1) (* (- 342.24751408830053 376.99824108587575) t1)))) (= y1 (+ 834.9296142478717 (+ (* (- 764.278737167548 834.9296142478717) s1) (* (- 754.35275804908 834.9296142478717) t1)))))) (and (= x1 (+ 342.24751408830053 (+ (* (- 339.0234536277104 342.24751408830053) s1) (* (- 342.53180002646576 342.24751408830053) t1)))) (= y1 (+ 754.35275804908 (+ (* (- 742.2674994828745 754.35275804908) s1) (* (- 740.9437956859744 754.35275804908) t1)))))) (and (= x1 (+ 342.53180002646576 (+ (* (- 349.2754824160767 342.53180002646576) s1) (* (- 349.3253698937344 342.53180002646576) t1)))) (= y1 (+ 740.9437956859744 (+ (* (- 738.7890951981894 740.9437956859744) s1) (* (- 739.5878471336965 740.9437956859744) t1)))))) (and (= x1 (+ 388.30440255377647 (+ (* (- 389.26347848361524 388.30440255377647) s1) (* (- 386.00994921866857 388.30440255377647) t1)))) (= y1 (+ 828.4322068285976 (+ (* (- 829.1708990798604 828.4322068285976) s1) (* (- 832.4257118574083 828.4322068285976) t1)))))) (and (= x1 (+ 386.00994921866857 (+ (* (- 377.2750034636958 386.00994921866857) s1) (* (- 376.99824108587575 386.00994921866857) t1)))) (= y1 (+ 832.4257118574083 (+ (* (- 835.7914451493349 832.4257118574083) s1) (* (- 834.9296142478717 832.4257118574083) t1)))))) (and (= x1 (+ 376.99824108587575 (+ (* (- 342.24751408830053 376.99824108587575) s1) (* (- 342.53180002646576 376.99824108587575) t1)))) (= y1 (+ 834.9296142478717 (+ (* (- 754.35275804908 834.9296142478717) s1) (* (- 740.9437956859744 834.9296142478717) t1)))))) (and (= x1 (+ 342.53180002646576 (+ (* (- 349.3253698937344 342.53180002646576) s1) (* (- 349.3919113878511 342.53180002646576) t1)))) (= y1 (+ 740.9437956859744 (+ (* (- 739.5878471336965 740.9437956859744) s1) (* (- 740.1536296867343 740.9437956859744) t1)))))) (and (= x1 (+ 387.3971723542899 (+ (* (- 388.30440255377647 387.3971723542899) s1) (* (- 386.00994921866857 387.3971723542899) t1)))) (= y1 (+ 827.6675956715895 (+ (* (- 828.4322068285976 827.6675956715895) s1) (* (- 832.4257118574083 827.6675956715895) t1)))))) (and (= x1 (+ 386.00994921866857 (+ (* (- 376.99824108587575 386.00994921866857) s1) (* (- 342.53180002646576 386.00994921866857) t1)))) (= y1 (+ 832.4257118574083 (+ (* (- 834.9296142478717 832.4257118574083) s1) (* (- 740.9437956859744 832.4257118574083) t1)))))) (and (= x1 (+ 342.53180002646576 (+ (* (- 349.3919113878511 342.53180002646576) s1) (* (- 349.63487112915396 342.53180002646576) t1)))) (= y1 (+ 740.9437956859744 (+ (* (- 740.1536296867343 740.9437956859744) s1) (* (- 740.7766066433858 740.9437956859744) t1)))))) (and (= x1 (+ 386.16595675020466 (+ (* (- 387.3971723542899 386.16595675020466) s1) (* (- 386.00994921866857 386.16595675020466) t1)))) (= y1 (+ 826.1772522456478 (+ (* (- 827.6675956715895 826.1772522456478) s1) (* (- 832.4257118574083 826.1772522456478) t1)))))) (and (= x1 (+ 386.00994921866857 (+ (* (- 342.53180002646576 386.00994921866857) s1) (* (- 349.63487112915396 386.00994921866857) t1)))) (= y1 (+ 832.4257118574083 (+ (* (- 740.9437956859744 832.4257118574083) s1) (* (- 740.7766066433858 832.4257118574083) t1)))))) (and (= x1 (+ 385.58275852624223 (+ (* (- 386.16595675020466 385.58275852624223) s1) (* (- 386.00994921866857 385.58275852624223) t1)))) (= y1 (+ 825.3089654206053 (+ (* (- 826.1772522456478 825.3089654206053) s1) (* (- 832.4257118574083 825.3089654206053) t1)))))) (and (= x1 (+ 386.00994921866857 (+ (* (- 349.63487112915396 386.00994921866857) s1) (* (- 384.30435218254564 386.00994921866857) t1)))) (= y1 (+ 832.4257118574083 (+ (* (- 740.7766066433858 832.4257118574083) s1) (* (- 822.6942805233338 832.4257118574083) t1)))))) (and (= x1 (+ 385.09028329380493 (+ (* (- 385.58275852624223 385.09028329380493) s1) (* (- 386.00994921866857 385.09028329380493) t1)))) (= y1 (+ 824.5184357645813 (+ (* (- 825.3089654206053 824.5184357645813) s1) (* (- 832.4257118574083 824.5184357645813) t1)))))) (and (= x1 (+ 386.00994921866857 (+ (* (- 384.30435218254564 386.00994921866857) s1) (* (- 385.09028329380493 386.00994921866857) t1)))) (= y1 (+ 832.4257118574083 (+ (* (- 822.6942805233338 832.4257118574083) s1) (* (- 824.5184357645813 832.4257118574083) t1)))))) (and (= x1 (+ 364.9598946303698 (+ (* (- 363.2987696260992 364.9598946303698) s1) (* (- 361.8047508897849 364.9598946303698) t1)))) (= y1 (+ 854.4643803479198 (+ (* (- 850.8307185648783 854.4643803479198) s1) (* (- 847.5625967896881 854.4643803479198) t1)))))) (and (= x1 (+ 374.33957426567173 (+ (* (- 374.8303457330336 374.33957426567173) s1) (* (- 376.54307487715977 374.33957426567173) t1)))) (= y1 (+ 842.223650252292 (+ (* (- 841.9588288599588 842.223650252292) s1) (* (- 845.1040034736586 842.223650252292) t1)))))) (and (= x1 (+ 376.54307487715977 (+ (* (- 378.4422809994676 376.54307487715977) s1) (* (- 380.73816813907285 376.54307487715977) t1)))) (= y1 (+ 845.1040034736586 (+ (* (- 848.5916155623408 845.1040034736586) s1) (* (- 852.8076738669369 845.1040034736586) t1)))))) (and (= x1 (+ 364.9598946303698 (+ (* (- 361.8047508897849 364.9598946303698) s1) (* (- 374.33957426567173 364.9598946303698) t1)))) (= y1 (+ 854.4643803479198 (+ (* (- 847.5625967896881 854.4643803479198) s1) (* (- 842.223650252292 854.4643803479198) t1)))))) (and (= x1 (+ 374.33957426567173 (+ (* (- 376.54307487715977 374.33957426567173) s1) (* (- 380.73816813907285 374.33957426567173) t1)))) (= y1 (+ 842.223650252292 (+ (* (- 845.1040034736586 842.223650252292) s1) (* (- 852.8076738669369 842.223650252292) t1)))))) (and (= x1 (+ 380.73816813907285 (+ (* (- 364.9598946303698 380.73816813907285) s1) (* (- 374.33957426567173 380.73816813907285) t1)))) (= y1 (+ 852.8076738669369 (+ (* (- 854.4643803479198 852.8076738669369) s1) (* (- 842.223650252292 852.8076738669369) t1)))))) (and (= x1 (+ 358.304002729455 (+ (* (- 361.0117633947591 358.304002729455) s1) (* (- 325.26179223691514 358.304002729455) t1)))) (= y1 (+ 649.5681791503661 (+ (* (- 656.5050165336238 649.5681791503661) s1) (* (- 668.1074259525095 649.5681791503661) t1)))))) (and (= x1 (+ 325.26179223691514 (+ (* (- 322.66507885017074 325.26179223691514) s1) (* (- 321.8233209264048 325.26179223691514) t1)))) (= y1 (+ 668.1074259525095 (+ (* (- 660.8612478919821 668.1074259525095) s1) (* (- 658.3882863727267 668.1074259525095) t1)))))) (and (= x1 (+ 338.8337697745735 (+ (* (- 349.054622357077 338.8337697745735) s1) (* (- 358.304002729455 338.8337697745735) t1)))) (= y1 (+ 652.8523129187957 (+ (* (- 649.5030774132542 652.8523129187957) s1) (* (- 649.5681791503661 652.8523129187957) t1)))))) (and (= x1 (+ 358.304002729455 (+ (* (- 325.26179223691514 358.304002729455) s1) (* (- 321.8233209264048 358.304002729455) t1)))) (= y1 (+ 649.5681791503661 (+ (* (- 668.1074259525095 649.5681791503661) s1) (* (- 658.3882863727267 649.5681791503661) t1)))))) (and (= x1 (+ 321.8233209264048 (+ (* (- 338.8337697745735 321.8233209264048) s1) (* (- 358.304002729455 321.8233209264048) t1)))) (= y1 (+ 658.3882863727267 (+ (* (- 652.8523129187957 658.3882863727267) s1) (* (- 649.5681791503661 658.3882863727267) t1)))))) (and (= x1 (+ 353.0360931708686 (+ (* (- 353.495593360194 353.0360931708686) s1) (* (- 355.06994356308553 353.0360931708686) t1)))) (= y1 (+ 721.1999646632426 (+ (* (- 721.0507240164651 721.1999646632426) s1) (* (- 725.0692292107132 721.1999646632426) t1)))))) (and (= x1 (+ 355.06994356308553 (+ (* (- 356.7651418919319 355.06994356308553) s1) (* (- 356.48453236797195 355.06994356308553) t1)))) (= y1 (+ 725.0692292107132 (+ (* (- 729.3961974225836 725.0692292107132) s1) (* (- 729.4681401393353 725.0692292107132) t1)))))) (and (= x1 (+ 351.289559713801 (+ (* (- 350.88485842113454 351.289559713801) s1) (* (- 348.11420076846804 351.289559713801) t1)))) (= y1 (+ 731.8998550403189 (+ (* (- 732.3644367209705 731.8998550403189) s1) (* (- 727.420037128159 731.8998550403189) t1)))))) (and (= x1 (+ 348.11420076846804 (+ (* (- 345.9455047403434 348.11420076846804) s1) (* (- 347.1205786968184 348.11420076846804) t1)))) (= y1 (+ 727.420037128159 (+ (* (- 723.5498730228807 727.420037128159) s1) (* (- 723.151107964649 727.420037128159) t1)))))) (and (= x1 (+ 347.1205786968184 (+ (* (- 350.7211152853191 347.1205786968184) s1) (* (- 353.0360931708686 347.1205786968184) t1)))) (= y1 (+ 723.151107964649 (+ (* (- 721.951844223156 723.151107964649) s1) (* (- 721.1999646632426 723.151107964649) t1)))))) (and (= x1 (+ 353.0360931708686 (+ (* (- 355.06994356308553 353.0360931708686) s1) (* (- 356.48453236797195 353.0360931708686) t1)))) (= y1 (+ 721.1999646632426 (+ (* (- 725.0692292107132 721.1999646632426) s1) (* (- 729.4681401393353 721.1999646632426) t1)))))) (and (= x1 (+ 351.7555702595526 (+ (* (- 351.289559713801 351.7555702595526) s1) (* (- 348.11420076846804 351.7555702595526) t1)))) (= y1 (+ 731.4505564755799 (+ (* (- 731.8998550403189 731.4505564755799) s1) (* (- 727.420037128159 731.4505564755799) t1)))))) (and (= x1 (+ 348.11420076846804 (+ (* (- 347.1205786968184 348.11420076846804) s1) (* (- 353.0360931708686 348.11420076846804) t1)))) (= y1 (+ 727.420037128159 (+ (* (- 723.151107964649 727.420037128159) s1) (* (- 721.1999646632426 727.420037128159) t1)))))) (and (= x1 (+ 353.0360931708686 (+ (* (- 356.48453236797195 353.0360931708686) s1) (* (- 356.1679335195173 353.0360931708686) t1)))) (= y1 (+ 721.1999646632426 (+ (* (- 729.4681401393353 721.1999646632426) s1) (* (- 729.5493098062547 721.1999646632426) t1)))))) (and (= x1 (+ 352.27352791275035 (+ (* (- 351.7555702595526 352.27352791275035) s1) (* (- 348.11420076846804 352.27352791275035) t1)))) (= y1 (+ 731.0636130336828 (+ (* (- 731.4505564755799 731.0636130336828) s1) (* (- 727.420037128159 731.0636130336828) t1)))))) (and (= x1 (+ 348.11420076846804 (+ (* (- 353.0360931708686 348.11420076846804) s1) (* (- 356.1679335195173 348.11420076846804) t1)))) (= y1 (+ 727.420037128159 (+ (* (- 721.1999646632426 727.420037128159) s1) (* (- 729.5493098062547 727.420037128159) t1)))))) (and (= x1 (+ 352.78945834683014 (+ (* (- 352.27352791275035 352.78945834683014) s1) (* (- 348.11420076846804 352.78945834683014) t1)))) (= y1 (+ 730.7640805598874 (+ (* (- 731.0636130336828 730.7640805598874) s1) (* (- 727.420037128159 730.7640805598874) t1)))))) (and (= x1 (+ 348.11420076846804 (+ (* (- 356.1679335195173 348.11420076846804) s1) (* (- 354.37052463404854 348.11420076846804) t1)))) (= y1 (+ 727.420037128159 (+ (* (- 729.5493098062547 727.420037128159) s1) (* (- 730.0651713913453 727.420037128159) t1)))))) (and (= x1 (+ 353.5051013541911 (+ (* (- 352.78945834683014 353.5051013541911) s1) (* (- 348.11420076846804 353.5051013541911) t1)))) (= y1 (+ 730.3979852918536 (+ (* (- 730.7640805598874 730.3979852918536) s1) (* (- 727.420037128159 730.3979852918536) t1)))))) (and (= x1 (+ 348.11420076846804 (+ (* (- 354.37052463404854 348.11420076846804) s1) (* (- 353.5051013541911 348.11420076846804) t1)))) (= y1 (+ 727.420037128159 (+ (* (- 730.0651713913453 727.420037128159) s1) (* (- 730.3979852918536 727.420037128159) t1)))))) (and (= x1 (+ 314.79010814909014 (+ (* (- 306.30768298364563 314.79010814909014) s1) (* (- 308.7745486982619 314.79010814909014) t1)))) (= y1 (+ 710.7177460627444 (+ (* (- 700.8486809236515 710.7177460627444) s1) (* (- 698.6138227186918 710.7177460627444) t1)))))) (and (= x1 (+ 308.7745486982619 (+ (* (- 311.3949819641607 308.7745486982619) s1) (* (- 314.4119266467503 308.7745486982619) t1)))) (= y1 (+ 698.6138227186918 (+ (* (- 696.2398399189844 698.6138227186918) s1) (* (- 693.5066374082261 698.6138227186918) t1)))))) (and (= x1 (+ 314.4119266467503 (+ (* (- 339.8880532717315 314.4119266467503) s1) (* (- 336.43086367176596 314.4119266467503) t1)))) (= y1 (+ 693.5066374082261 (+ (* (- 722.8288788834602 693.5066374082261) s1) (* (- 725.1171975847781 693.5066374082261) t1)))))) (and (= x1 (+ 333.0528928519965 (+ (* (- 330.3135078238197 333.0528928519965) s1) (* (- 330.10347207920955 333.0528928519965) t1)))) (= y1 (+ 727.3530812625809 (+ (* (- 729.1662840997897 727.3530812625809) s1) (* (- 728.8384335054001 727.3530812625809) t1)))))) (and (= x1 (+ 328.683397997116 (+ (* (- 325.6825483394243 328.683397997116) s1) (* (- 314.79010814909014 328.683397997116) t1)))) (= y1 (+ 726.7926848335526 (+ (* (- 723.4925920117313 726.7926848335526) s1) (* (- 710.7177460627444 726.7926848335526) t1)))))) (and (= x1 (+ 314.79010814909014 (+ (* (- 308.7745486982619 314.79010814909014) s1) (* (- 314.4119266467503 314.79010814909014) t1)))) (= y1 (+ 710.7177460627444 (+ (* (- 698.6138227186918 710.7177460627444) s1) (* (- 693.5066374082261 710.7177460627444) t1)))))) (and (= x1 (+ 314.4119266467503 (+ (* (- 336.43086367176596 314.4119266467503) s1) (* (- 333.0528928519965 314.4119266467503) t1)))) (= y1 (+ 693.5066374082261 (+ (* (- 725.1171975847781 693.5066374082261) s1) (* (- 727.3530812625809 693.5066374082261) t1)))))) (and (= x1 (+ 333.0528928519965 (+ (* (- 330.10347207920955 333.0528928519965) s1) (* (- 329.84829140515455 333.0528928519965) t1)))) (= y1 (+ 727.3530812625809 (+ (* (- 728.8384335054001 727.3530812625809) s1) (* (- 728.4401149425619 727.3530812625809) t1)))))) (and (= x1 (+ 328.683397997116 (+ (* (- 314.79010814909014 328.683397997116) s1) (* (- 314.4119266467503 328.683397997116) t1)))) (= y1 (+ 726.7926848335526 (+ (* (- 710.7177460627444 726.7926848335526) s1) (* (- 693.5066374082261 726.7926848335526) t1)))))) (and (= x1 (+ 314.4119266467503 (+ (* (- 333.0528928519965 314.4119266467503) s1) (* (- 329.84829140515455 314.4119266467503) t1)))) (= y1 (+ 693.5066374082261 (+ (* (- 727.3530812625809 693.5066374082261) s1) (* (- 728.4401149425619 693.5066374082261) t1)))))) (and (= x1 (+ 329.28248913194454 (+ (* (- 328.683397997116 329.28248913194454) s1) (* (- 314.4119266467503 329.28248913194454) t1)))) (= y1 (+ 727.5747981779166 (+ (* (- 726.7926848335526 727.5747981779166) s1) (* (- 693.5066374082261 727.5747981779166) t1)))))) (and (= x1 (+ 314.4119266467503 (+ (* (- 329.84829140515455 314.4119266467503) s1) (* (- 329.28248913194454 314.4119266467503) t1)))) (= y1 (+ 693.5066374082261 (+ (* (- 728.4401149425619 693.5066374082261) s1) (* (- 727.5747981779166 693.5066374082261) t1)))))) (and (= x1 (+ 302.45929580653035 (+ (* (- 305.3616050513555 302.45929580653035) s1) (* (- 308.81630234307704 302.45929580653035) t1)))) (= y1 (+ 664.8314226249603 (+ (* (- 663.0427842848619 664.8314226249603) s1) (* (- 667.7321210434962 664.8314226249603) t1)))))) (and (= x1 (+ 308.81630234307704 (+ (* (- 312.24582962207626 308.81630234307704) s1) (* (- 307.76581494720403 308.81630234307704) t1)))) (= y1 (+ 667.7321210434962 (+ (* (- 672.3316678825282 667.7321210434962) s1) (* (- 673.7856261038388 667.7321210434962) t1)))))) (and (= x1 (+ 305.4287184585006 (+ (* (- 304.92776393529437 305.4287184585006) s1) (* (- 299.42676574514184 305.4287184585006) t1)))) (= y1 (+ 674.4902926556379 (+ (* (- 674.7049627387482 674.4902926556379) s1) (* (- 670.620786646189 674.4902926556379) t1)))))) (and (= x1 (+ 299.42676574514184 (+ (* (- 295.0866068712712 299.42676574514184) s1) (* (- 295.3163946225907 299.42676574514184) t1)))) (= y1 (+ 670.620786646189 (+ (* (- 667.3810598104448 670.620786646189) s1) (* (- 667.3076304959396 670.620786646189) t1)))))) (and (= x1 (+ 295.3163946225907 (+ (* (- 302.45929580653035 295.3163946225907) s1) (* (- 308.81630234307704 295.3163946225907) t1)))) (= y1 (+ 667.3076304959396 (+ (* (- 664.8314226249603 667.3076304959396) s1) (* (- 667.7321210434962 667.3076304959396) t1)))))) (and (= x1 (+ 308.81630234307704 (+ (* (- 307.76581494720403 308.81630234307704) s1) (* (- 305.4287184585006 308.81630234307704) t1)))) (= y1 (+ 667.7321210434962 (+ (* (- 673.7856261038388 667.7321210434962) s1) (* (- 674.4902926556379 667.7321210434962) t1)))))) (and (= x1 (+ 305.4287184585006 (+ (* (- 299.42676574514184 305.4287184585006) s1) (* (- 295.3163946225907 305.4287184585006) t1)))) (= y1 (+ 674.4902926556379 (+ (* (- 670.620786646189 674.4902926556379) s1) (* (- 667.3076304959396 674.4902926556379) t1)))))) (and (= x1 (+ 295.3163946225907 (+ (* (- 308.81630234307704 295.3163946225907) s1) (* (- 305.4287184585006 295.3163946225907) t1)))) (= y1 (+ 667.3076304959396 (+ (* (- 667.7321210434962 667.3076304959396) s1) (* (- 674.4902926556379 667.3076304959396) t1)))))) (and (= x1 (+ 294.21452065603347 (+ (* (- 291.36755847833206 294.21452065603347) s1) (* (- 295.5261851534337 294.21452065603347) t1)))) (= y1 (+ 686.7456391595731 (+ (* (- 683.4222561539736 686.7456391595731) s1) (* (- 682.3200032372782 686.7456391595731) t1)))))) (and (= x1 (+ 295.5261851534337 (+ (* (- 300.5255586351979 295.5261851534337) s1) (* (- 303.2139333912124 295.5261851534337) t1)))) (= y1 (+ 682.3200032372782 (+ (* (- 680.9949085759685 682.3200032372782) s1) (* (- 680.2823490826806 682.3200032372782) t1)))))) (and (= x1 (+ 303.31485980820986 (+ (* (- 303.6240798444992 303.31485980820986) s1) (* (- 303.7142577079648 303.31485980820986) t1)))) (= y1 (+ 680.4976576831307 (+ (* (- 680.8970503692948 680.4976576831307) s1) (* (- 681.0135252947414 680.4976576831307) t1)))))) (and (= x1 (+ 303.7142577079648 (+ (* (- 304.14601543084717 303.7142577079648) s1) (* (- 310.7904250805158 303.7142577079648) t1)))) (= y1 (+ 681.0135252947414 (+ (* (- 681.4636492485771 681.0135252947414) s1) (* (- 689.2442109329777 681.0135252947414) t1)))))) (and (= x1 (+ 307.98341606214575 (+ (* (- 305.52418336279754 307.98341606214575) s1) (* (- 303.24941083491717 307.98341606214575) t1)))) (= y1 (+ 692.2392871092602 (+ (* (- 694.8632862618318 692.2392871092602) s1) (* (- 697.2904665643609 692.2392871092602) t1)))))) (and (= x1 (+ 303.24941083491717 (+ (* (- 302.87681021135853 303.24941083491717) s1) (* (- 294.21452065603347 303.24941083491717) t1)))) (= y1 (+ 697.2904665643609 (+ (* (- 696.8569561283454 697.2904665643609) s1) (* (- 686.7456391595731 697.2904665643609) t1)))))) (and (= x1 (+ 294.21452065603347 (+ (* (- 295.5261851534337 294.21452065603347) s1) (* (- 303.2139333912124 294.21452065603347) t1)))) (= y1 (+ 686.7456391595731 (+ (* (- 682.3200032372782 686.7456391595731) s1) (* (- 680.2823490826806 686.7456391595731) t1)))))) (and (= x1 (+ 303.7142577079648 (+ (* (- 310.7904250805158 303.7142577079648) s1) (* (- 307.98341606214575 303.7142577079648) t1)))) (= y1 (+ 681.0135252947414 (+ (* (- 689.2442109329777 681.0135252947414) s1) (* (- 692.2392871092602 681.0135252947414) t1)))))) (and (= x1 (+ 307.98341606214575 (+ (* (- 303.24941083491717 307.98341606214575) s1) (* (- 294.21452065603347 307.98341606214575) t1)))) (= y1 (+ 692.2392871092602 (+ (* (- 697.2904665643609 692.2392871092602) s1) (* (- 686.7456391595731 692.2392871092602) t1)))))) (and (= x1 (+ 294.21452065603347 (+ (* (- 303.2139333912124 294.21452065603347) s1) (* (- 303.31485980820986 294.21452065603347) t1)))) (= y1 (+ 686.7456391595731 (+ (* (- 680.2823490826806 686.7456391595731) s1) (* (- 680.4976576831307 686.7456391595731) t1)))))) (and (= x1 (+ 303.31485980820986 (+ (* (- 303.7142577079648 303.31485980820986) s1) (* (- 307.98341606214575 303.31485980820986) t1)))) (= y1 (+ 680.4976576831307 (+ (* (- 681.0135252947414 680.4976576831307) s1) (* (- 692.2392871092602 680.4976576831307) t1)))))) (and (= x1 (+ 307.98341606214575 (+ (* (- 294.21452065603347 307.98341606214575) s1) (* (- 303.31485980820986 307.98341606214575) t1)))) (= y1 (+ 692.2392871092602 (+ (* (- 686.7456391595731 692.2392871092602) s1) (* (- 680.4976576831307 692.2392871092602) t1)))))) (and (= x1 (+ 278.2271046454575 (+ (* (- 269.8184903480029 278.2271046454575) s1) (* (- 273.94003777506737 278.2271046454575) t1)))) (= y1 (+ 668.4850457447819 (+ (* (- 658.9252750157929 668.4850457447819) s1) (* (- 655.2012765028641 668.4850457447819) t1)))))) (and (= x1 (+ 273.94003777506737 (+ (* (- 277.99069044093966 273.94003777506737) s1) (* (- 290.0685849335063 273.94003777506737) t1)))) (= y1 (+ 655.2012765028641 (+ (* (- 651.5413345144459 655.2012765028641) s1) (* (- 665.4547939915797 655.2012765028641) t1)))))) (and (= x1 (+ 290.0685849335063 (+ (* (- 290.7887144342082 290.0685849335063) s1) (* (- 283.1301799491464 290.0685849335063) t1)))) (= y1 (+ 665.4547939915797 (+ (* (- 666.2945578263473 665.4547939915797) s1) (* (- 665.8553799291382 665.4547939915797) t1)))))) (and (= x1 (+ 283.1301799491464 (+ (* (- 278.6355034870639 283.1301799491464) s1) (* (- 278.2271046454575 283.1301799491464) t1)))) (= y1 (+ 665.8553799291382 (+ (* (- 668.9904696476456 665.8553799291382) s1) (* (- 668.4850457447819 665.8553799291382) t1)))))) (and (= x1 (+ 273.94003777506737 (+ (* (- 290.0685849335063 273.94003777506737) s1) (* (- 283.1301799491464 273.94003777506737) t1)))) (= y1 (+ 655.2012765028641 (+ (* (- 665.4547939915797 655.2012765028641) s1) (* (- 665.8553799291382 655.2012765028641) t1)))))) (and (= x1 (+ 283.1301799491464 (+ (* (- 278.2271046454575 283.1301799491464) s1) (* (- 273.94003777506737 283.1301799491464) t1)))) (= y1 (+ 665.8553799291382 (+ (* (- 668.4850457447819 665.8553799291382) s1) (* (- 655.2012765028641 665.8553799291382) t1)))))) (and (= x1 (+ 277.20211095418705 (+ (* (- 277.64516648554417 277.20211095418705) s1) (* (- 281.6594998382746 277.20211095418705) t1)))) (= y1 (+ 673.024184552063 (+ (* (- 672.8518076999638 673.024184552063) s1) (* (- 676.8090001910056 673.024184552063) t1)))))) (and (= x1 (+ 281.6594998382746 (+ (* (- 286.03281552163645 281.6594998382746) s1) (* (- 285.66652781252895 281.6594998382746) t1)))) (= y1 (+ 676.8090001910056 (+ (* (- 681.1200651909177 676.8090001910056) s1) (* (- 681.2447450146989 676.8090001910056) t1)))))) (and (= x1 (+ 285.66652781252895 (+ (* (- 284.30020678660213 285.66652781252895) s1) (* (- 268.22477398033254 285.66652781252895) t1)))) (= y1 (+ 681.2447450146989 (+ (* (- 681.6866241651235 681.2447450146989) s1) (* (- 686.8069949372791 681.2447450146989) t1)))))) (and (= x1 (+ 268.22477398033254 (+ (* (- 266.4723701998817 268.22477398033254) s1) (* (- 264.59350010984724 268.22477398033254) t1)))) (= y1 (+ 686.8069949372791 (+ (* (- 681.9990929788933 686.8069949372791) s1) (* (- 676.8442175510029 686.8069949372791) t1)))))) (and (= x1 (+ 264.59350010984724 (+ (* (- 276.6930864915414 264.59350010984724) s1) (* (- 277.20211095418705 264.59350010984724) t1)))) (= y1 (+ 676.8442175510029 (+ (* (- 673.1634617023087 676.8442175510029) s1) (* (- 673.024184552063 676.8442175510029) t1)))))) (and (= x1 (+ 277.20211095418705 (+ (* (- 281.6594998382746 277.20211095418705) s1) (* (- 285.66652781252895 277.20211095418705) t1)))) (= y1 (+ 673.024184552063 (+ (* (- 676.8090001910056 673.024184552063) s1) (* (- 681.2447450146989 673.024184552063) t1)))))) (and (= x1 (+ 285.66652781252895 (+ (* (- 268.22477398033254 285.66652781252895) s1) (* (- 264.59350010984724 285.66652781252895) t1)))) (= y1 (+ 681.2447450146989 (+ (* (- 686.8069949372791 681.2447450146989) s1) (* (- 676.8442175510029 681.2447450146989) t1)))))) (and (= x1 (+ 264.59350010984724 (+ (* (- 277.20211095418705 264.59350010984724) s1) (* (- 285.66652781252895 264.59350010984724) t1)))) (= y1 (+ 676.8442175510029 (+ (* (- 673.024184552063 676.8442175510029) s1) (* (- 681.2447450146989 676.8442175510029) t1)))))))

(check-sat)
(exit)